language Essence 1.3

letting blksize_delta be
        function(1 --> 10, 2 --> 10, 3 --> 10, 4 --> 10, 5 --> 10, 6 --> 10, 7 --> 10, 8 --> 10, 9 --> 10, 10 --> 10,
                 11 --> 10, 12 --> 10, 13 --> 10, 14 --> 10, 15 --> 10, 16 --> 10, 17 --> 10, 18 --> 10, 19 --> 10,
                 20 --> 10, 21 --> 10, 22 --> 10, 23 --> 10, 24 --> 10, 25 --> 10, 26 --> 10, 27 --> 10, 28 --> 10,
                 29 --> 10, 30 --> 10, 31 --> 10)
letting maxcars be
        function(1 --> 9, 2 --> 8, 3 --> 10, 4 --> 8, 5 --> 8, 6 --> 8, 7 --> 10, 8 --> 9, 9 --> 10, 10 --> 8, 11 --> 8,
                 12 --> 10, 13 --> 8, 14 --> 8, 15 --> 8, 16 --> 9, 17 --> 9, 18 --> 9, 19 --> 8, 20 --> 8, 21 --> 8,
                 22 --> 8, 23 --> 8, 24 --> 9, 25 --> 8, 26 --> 10, 27 --> 9, 28 --> 8, 29 --> 8, 30 --> 10, 31 --> 8)
letting n_cars be 143
letting n_classes be 19
letting n_options be 31
letting quantity be
        function(1 --> 9, 2 --> 8, 3 --> 9, 4 --> 7, 5 --> 7, 6 --> 9, 7 --> 9, 8 --> 7, 9 --> 7, 10 --> 7, 11 --> 7,
                 12 --> 8, 13 --> 7, 14 --> 7, 15 --> 7, 16 --> 7, 17 --> 7, 18 --> 7, 19 --> 7)
letting usage be
        relation((1, 1), (1, 6), (1, 15), (1, 20), (1, 24), (1, 25), (1, 26), (1, 29), (1, 30), (1, 31), (2, 1), (2, 6),
                 (2, 7), (2, 13), (2, 16), (2, 17), (2, 24), (2, 28), (3, 5), (3, 9), (3, 11), (3, 14), (3, 17),
                 (3, 18), (3, 19), (3, 21), (3, 26), (4, 8), (4, 10), (4, 17), (4, 18), (4, 20), (4, 21), (4, 22),
                 (4, 23), (4, 25), (4, 28), (5, 2), (5, 7), (5, 10), (5, 11), (5, 17), (5, 19), (5, 24), (5, 25),
                 (5, 29), (6, 1), (6, 3), (6, 7), (6, 10), (6, 23), (6, 29), (7, 4), (7, 9), (7, 17), (7, 22), (8, 6),
                 (8, 7), (8, 9), (8, 14), (8, 19), (8, 20), (8, 24), (8, 26), (8, 29), (9, 1), (9, 5), (9, 7), (9, 8),
                 (9, 15), (9, 25), (9, 29), (9, 30), (10, 4), (10, 7), (10, 9), (10, 14), (10, 18), (10, 21), (10, 25),
                 (10, 27), (10, 28), (10, 30), (11, 2), (11, 7), (11, 20), (11, 24), (11, 29), (11, 31), (12, 1),
                 (12, 3), (12, 4), (12, 6), (12, 12), (12, 14), (12, 24), (12, 26), (12, 29), (13, 10), (13, 18),
                 (13, 21), (13, 22), (13, 24), (13, 26), (13, 28), (13, 29), (14, 5), (14, 8), (14, 17), (14, 18),
                 (14, 19), (14, 24), (15, 4), (15, 5), (15, 13), (15, 17), (15, 20), (15, 25), (15, 31), (16, 2),
                 (16, 3), (16, 7), (16, 11), (16, 23), (16, 31), (17, 8), (17, 10), (18, 2), (18, 4), (18, 6), (18, 9),
                 (18, 10), (18, 15), (19, 1), (19, 5), (19, 6), (19, 14), (19, 19), (19, 23), (19, 31))
$ Visualisation for usage
$  1  1
$  1  6
$  1 15
$  1 20
$  1 24
$  1 25
$  1 26
$  1 29
$  1 30
$  1 31
$  2  1
$  2  6
$  2  7
$  2 13
$  2 16
$  2 17
$  2 24
$  2 28
$  3  5
$  3  9
$  3 11
$  3 14
$  3 17
$  3 18
$  3 19
$  3 21
$  3 26
$  4  8
$  4 10
$  4 17
$  4 18
$  4 20
$  4 21
$  4 22
$  4 23
$  4 25
$  4 28
$  5  2
$  5  7
$  5 10
$  5 11
$  5 17
$  5 19
$  5 24
$  5 25
$  5 29
$  6  1
$  6  3
$  6  7
$  6 10
$  6 23
$  6 29
$  7  4
$  7  9
$  7 17
$  7 22
$  8  6
$  8  7
$  8  9
$  8 14
$  8 19
$  8 20
$  8 24
$  8 26
$  8 29
$  9  1
$  9  5
$  9  7
$  9  8
$  9 15
$  9 25
$  9 29
$  9 30
$ 10  4
$ 10  7
$ 10  9
$ 10 14
$ 10 18
$ 10 21
$ 10 25
$ 10 27
$ 10 28
$ 10 30
$ 11  2
$ 11  7
$ 11 20
$ 11 24
$ 11 29
$ 11 31
$ 12  1
$ 12  3
$ 12  4
$ 12  6
$ 12 12
$ 12 14
$ 12 24
$ 12 26
$ 12 29
$ 13 10
$ 13 18
$ 13 21
$ 13 22
$ 13 24
$ 13 26
$ 13 28
$ 13 29
$ 14  5
$ 14  8
$ 14 17
$ 14 18
$ 14 19
$ 14 24
$ 15  4
$ 15  5
$ 15 13
$ 15 17
$ 15 20
$ 15 25
$ 15 31
$ 16  2
$ 16  3
$ 16  7
$ 16 11
$ 16 23
$ 16 31
$ 17  8
$ 17 10
$ 18  2
$ 18  4
$ 18  6
$ 18  9
$ 18 10
$ 18 15
$ 19  1
$ 19  5
$ 19  6
$ 19 14
$ 19 19
$ 19 23
$ 19 31

